32	0

0	8	2	3	4	5	6	8	10	11
8	6	14	15	16	17	19	21
7	7	14	15	16	17	18	19	21
1	2	7	9
8	6	14	15	16	17	19	21
1	2	7	9
1	1	12
6	7	14	15	16	17	18	19	21
1	1	12
5	2	13	18
2	1	12
1	2	13	18
3	6	14	15	16	17	19	21
6	3	20	22	25
3	3	20	22	25
10	2	23	26
7	3	23	24	26
10	2	23	26
3	3	20	22	25
1	3	23	24	26
10	2	23	26
1	3	23	24	26
3	2	27	28
5	2	27	28
8	1	29
6	1	29
3	1	29
7	1	32
1	1	30
1	1	31
1	1	32
0	0
